p cnf 103 361
-3 -1 0
-3 -2 0
1 2 3 0
-4 -5 -6 0
4 5 -6 0
-4 5 6 0
4 -5 6 0
-3 6 -7 0
3 -6 -7 0
-3 -6 7 0
3 6 7 0
-5 -10 -11 0
5 10 -11 0
-5 10 11 0
5 -10 11 0
12 -2 -13 0
-12 2 -13 0
12 2 13 0
-12 -2 13 0
14 -11 0
14 -13 0
11 13 -14 0
-9 -14 -15 0
9 14 -15 0
-9 14 15 0
9 -14 15 0
17 -15 0
17 -16 0
15 16 -17 0
5 17 -18 0
-5 -17 -18 0
5 -17 18 0
-5 17 18 0
19 -2 0
19 18 0
2 -18 -19 0
-20 8 0
-20 19 0
-8 -19 20 0
-21 7 0
-21 -20 0
-7 20 21 0
-23 -22 0
-23 12 0
22 -12 23 0
21 -23 -24 0
-21 23 -24 0
21 23 24 0
-21 -23 24 0
26 -16 0
26 -25 0
16 25 -26 0
-27 -24 0
-27 -26 0
24 26 27 0
-8 -12 -28 0
8 12 -28 0
-8 12 28 0
8 -12 28 0
-12 28 -29 0
12 -28 -29 0
-12 -28 29 0
12 28 29 0
30 9 0
30 -5 0
-9 5 -30 0
-29 30 -31 0
29 -30 -31 0
-29 -30 31 0
29 30 31 0
32 31 0
32 -22 0
-31 22 -32 0
-33 -27 0
-33 32 0
27 -32 33 0
9 -8 -34 0
-9 8 -34 0
9 8 34 0
-9 -8 34 0
-34 -35 0
34 -35 0
35 5 -36 0
-35 -5 -36 0
35 -5 36 0
-35 5 36 0
-37 -19 0
-37 36 0
19 -36 37 0
-39 37 0
-39 38 0
-37 -38 39 0
39 -28 -40 0
-39 28 -40 0
39 28 40 0
-39 -28 40 0
-5 12 -41 0
5 -12 -41 0
-5 -12 41 0
5 12 41 0
-17 -5 -42 0
17 5 -42 0
-17 5 42 0
17 -5 42 0
42 35 -43 0
-42 -35 -43 0
42 -35 43 0
-42 35 43 0
44 41 0
44 43 0
-41 -43 -44 0
25 -35 -45 0
-25 35 -45 0
25 35 45 0
-25 -35 45 0
-46 -45 0
-46 -36 0
45 36 46 0
47 46 0
47 38 0
-46 -38 -47 0
-48 25 0
-48 28 0
-25 -28 48 0
-49 -48 0
-49 -3 0
48 3 49 0
50 45 0
50 -4 0
-45 4 -50 0
51 49 0
51 -50 0
-49 50 -51 0
-52 47 0
-52 -51 0
-47 51 52 0
53 44 0
53 -52 0
-44 52 -53 0
-54 15 0
-54 -13 0
-15 13 54 0
-55 -38 0
-55 -54 0
38 54 55 0
56 55 0
56 -45 0
-55 45 -56 0
-1 -36 -57 0
1 36 -57 0
-1 36 57 0
1 -36 57 0
17 45 -58 0
-17 -45 -58 0
17 -45 58 0
-17 45 58 0
-59 57 0
-59 58 0
-57 -58 59 0
-56 59 -60 0
56 -59 -60 0
-56 -59 60 0
56 59 60 0
61 -53 0
61 60 0
53 -60 -61 0
-45 -62 0
45 -62 0
63 -62 0
63 49 0
62 -49 -63 0
65 64 0
65 -12 0
-64 12 -65 0
-22 -8 -66 0
22 8 -66 0
-22 8 66 0
22 -8 66 0
67 15 0
67 -66 0
-15 66 -67 0
68 -13 0
68 67 0
13 -67 -68 0
-69 6 0
-69 -37 0
-6 37 69 0
68 -69 -70 0
-68 69 -70 0
68 69 70 0
-68 -69 70 0
-71 -65 0
-71 -70 0
65 70 71 0
-72 -63 0
-72 71 0
63 -71 72 0
73 6 0
73 -16 0
-6 16 -73 0
9 -73 -74 0
-9 73 -74 0
9 73 74 0
-9 -73 74 0
-75 -72 0
-75 74 0
72 -74 75 0
-76 61 0
-76 -75 0
-61 75 76 0
-40 76 -77 0
40 -76 -77 0
-40 -76 77 0
40 76 77 0
-78 -38 0
-78 46 0
38 -46 78 0
78 79 -80 0
-78 -79 -80 0
78 -79 80 0
-78 79 80 0
-18 54 -81 0
18 -54 -81 0
-18 -54 81 0
18 54 81 0
-34 -17 -82 0
34 17 -82 0
-34 17 82 0
34 -17 82 0
-83 -81 0
-83 -82 0
81 82 83 0
84 80 0
84 83 0
-80 -83 -84 0
-85 -42 0
-85 -14 0
42 14 85 0
86 11 0
86 54 0
-11 -54 -86 0
-87 10 0
-87 4 0
-10 -4 87 0
48 87 -88 0
-48 -87 -88 0
48 -87 88 0
-48 87 88 0
-25 64 -89 0
25 -64 -89 0
-25 -64 89 0
25 64 89 0
-8 89 -90 0
8 -89 -90 0
-8 -89 90 0
8 89 90 0
-91 1 0
-91 10 0
-1 -10 91 0
-39 91 -92 0
39 -91 -92 0
-39 -91 92 0
39 91 92 0
-93 -90 0
-93 92 0
90 -92 93 0
88 93 -94 0
-88 -93 -94 0
88 -93 94 0
-88 93 94 0
95 -86 0
95 -94 0
86 94 -95 0
-96 -85 0
-96 95 0
85 -95 96 0
97 -84 0
97 -96 0
84 96 -97 0
-98 -34 0
-98 15 0
34 -15 98 0
-19 -2 -99 0
19 2 -99 0
-19 2 99 0
19 -2 99 0
-98 99 -100 0
98 -99 -100 0
-98 -99 100 0
98 99 100 0
97 -100 -101 0
-97 100 -101 0
97 100 101 0
-97 -100 101 0
-102 -77 0
-102 101 0
77 -101 102 0
-103 33 0
-103 -102 0
-33 102 103 0
-48 97 25 0
42 -66 0
31 86 -8 0
-20 -53 27 -19 -1 0
55 -35 -38 0
-29 -34 0
19 23 -33 67 95 0
-31 58 22 52 48 0
62 -1 0
17 13 0
13 -79 -5 -75 68 -33 0
-55 -70 -72 35 -75 0
-41 4 -23 -65 80 -63 0
-71 30 54 76 48 0
-63 -28 -92 0
86 -71 28 44 0
64 -103 0
35 -85 0
-51 90 71 -89 42 0
72 -79 97 22 -15 0
-35 -53 52 13 -11 0
-30 101 -49 0
66 -55 -65 -39 0
-50 -19 -41 0
-101 -53 91 62 -97 0
82 -35 -97 -101 54 -30 0
-74 93 69 0
42 19 102 0
91 81 75 95 68 -77 0
-93 -43 1 -65 0
-77 31 -1 75 33 0
-71 -49 0
86 37 -67 -45 -28 -98 0
-21 53 -99 33 0
-16 14 59 70 0
-27 -58 -33 -35 0
67 -50 -57 -51 -90 0
-25 -76 0
-7 -85 102 -33 -93 0
16 -71 0
68 52 35 -15 0
-101 56 -100 51 0
100 -4 74 -43 31 0
54 78 -42 -48 0
-95 12 54 60 0
100 -79 -44 42 53 0
94 -95 -85 0
-55 -76 -26 -1 0
-47 8 43 83 9 -5 0
-97 5 -93 0
54 13 68 27 -4 0
-65 9 59 0
-61 -44 0
-94 19 4 0
22 68 92 10 0
89 -22 -31 0
70 -98 -44 0
-34 -1 -62 0
26 91 0
-93 -11 21 41 0
103 0
